191
0 104 13 89 87 110 65 181 123 178 
158 113 56 119 15 69 153 31 101 175 
6 99 163 146 184 148 1 96 43 17 
174 9 78 63 142 11 28 50 12 33 
76 125 92 185 83 120 73 77 22 36 
167 155 118 67 70 164 126 132 157 138 
66 116 136 173 24 131 130 154 8 52 
156 3 107 45 32 150 72 2 21 58 
172 5 26 190 182 128 117 95 102 42 
114 75 161 139 40 124 71 29 54 100 
177 98 143 170 81 34 180 115 134 82 
108 35 88 137 90 51 169 74 7 57 
19 23 53 171 38 91 149 106 129 48 
16 122 27 62 145 80 10 159 37 168 
25 165 20 152 188 64 79 183 127 166 
176 109 4 55 49 141 41 68 44 30 
121 39 84 112 60 14 111 135 93 147 
144 140 187 59 103 179 162 160 189 133 
61 86 151 85 47 186 18 105 46 97 
94 
